# NumOptions NumCars
# Options: Name Max Window 
# Cars: Name Count Options...
# One Solution: 1 2 6 3 5 4 4 5 3 6
5 6
A 1 2
B 2 3
C 1 3
D 2 5
E 1 5
1 1 A C D
2 1 D
3 2 B E
4 2 B D
5 2 A C
6 2 A B